391974.0
3738
0 2 3 4 5 9 10 11 12 13 14 15 16 18 19 20 21 22 23 24 26 28 29 31 32 33 34 35 37 39 40 41 46 48 49 50 51 52 53 54 55 56 58 59 62 64 65 67 68 71 72 73 74 76 79 82 83 84 85 86 87 89 90 91 93 94 95 97 98 99 100 101 102 103 104 106 107 108 110 114 115 116 117 118 119 120 122 123 126 127 129 130 131 132 133 134 135 136 138 139 140 141 142 143 144 147 148 149 151 154 155 156 157 158 159 160 161 163 165 166 168 169 170 171 172 173 175 176 177 179 180 181 182 183 186 187 188 189 191 194 196 197 198 199 